(set-info :smt-lib-version 2.6)
(set-logic ANIA)
(set-info :source |
Generated by: Matthias Heizmann
Generated on: 2024-04-13
Generator: Ultimate Automizer
Application: Software Verification
Generated by the tool Ultimate Automizer [1,2] which implements
an automata theoretic approach [3] to software verification.

This SMT script belongs to a set of SMT scripts that was generated by
applying Ultimate Automizer to benchmarks [4] from the SV-COMP 2024 [5,6].
This script may not contain all SMT commands that Ultimate Automizer
issued. In order to meet the restrictions for SMT-COMP benchmarks 
we dropped the commands for getting values (resp. models), 
unsatisfiable cores, and interpolants.

2024-04-13, Matthias Heizmann (heizmann@informatik.uni-freiburg.de)

[1] https://ultimate.informatik.uni-freiburg.de/automizer/
[2] Matthias Heizmann, Max Barth, Daniel Dietsch, Leonard Fichtner,
     Jochen Hoenicke, Dominik Klumpp, Mehdi Naouar, Tanja Schindler,
     Frank Schüssele, Andreas Podelski: Ultimate Automizer and the
     CommuHash Normal Form (Competition Contribution). TACAS 2023
[3] Matthias Heizmann, Jochen Hoenicke, Andreas Podelski: Software Model
     Checking for People Who Love Automata. CAV 2013
[4] https://github.com/sosy-lab/sv-benchmarks
[5] Dirk Beyer: State of the Art in Software Verification and
     Witness Validation: SV-COMP 2024.  TACAS 2024
[6] https://sv-comp.sosy-lab.org/2024/
|)
(set-info :license "https://creativecommons.org/licenses/by/4.0/")
(set-info :category "industrial")
(set-info :status unknown)
(declare-fun |#valid_-1| () (Array Int Int))
(declare-fun |#memory_int_-1| () (Array Int (Array Int Int)))
(declare-fun |#length_-1| () (Array Int Int))
(declare-fun |#StackHeapBarrier_-1| () Int)
(declare-fun ~SIZE~0_0 () Int)
(declare-fun ~MAX~0_0 () Int)
(declare-fun ~SIZE~0_1 () Int)
(declare-fun |v_ULTIMATE.start_main_#t~nondet7#1_15_fresh_1| () Int)
(declare-fun |ULTIMATE.start_main_#t~malloc8#1.offset_2| () Int)
(declare-fun |#valid_2| () (Array Int Int))
(declare-fun |#memory_int_2| () (Array Int (Array Int Int)))
(declare-fun |ULTIMATE.start_main_#t~malloc8#1.base_2| () Int)
(declare-fun |#length_2| () (Array Int Int))
(declare-fun v_ArrVal_39_fresh_1 () Int)
(declare-fun v_ArrVal_41_fresh_1 () (Array Int Int))
(declare-fun |v_ULTIMATE.start_#Ultimate.meminit_#product#1_11_fresh_1| () Int)
(declare-fun |v_ULTIMATE.start_#Ultimate.meminit_#sizeOfFields#1_11_fresh_1| () Int)
(declare-fun |v_ULTIMATE.start_#Ultimate.meminit_#amountOfFields#1_11_fresh_1| () Int)
(declare-fun |v_ULTIMATE.start_#Ultimate.meminit_#ptr#1.offset_11_fresh_1| () Int)
(declare-fun |v_ULTIMATE.start_#Ultimate.meminit_#ptr#1.base_13_fresh_1| () Int)
(declare-fun v_ArrVal_40_fresh_1 () Int)
(declare-fun |ULTIMATE.start_linear_search_~a#1.base_3| () Int)
(declare-fun |ULTIMATE.start_linear_search_~j~0#1_3| () Int)
(declare-fun |ULTIMATE.start_linear_search_~q#1_3| () Int)
(declare-fun |ULTIMATE.start_linear_search_~n#1_3| () Int)
(declare-fun |#memory_int_3| () (Array Int (Array Int Int)))
(declare-fun |ULTIMATE.start_linear_search_~a#1.offset_3| () Int)
(declare-fun |v_ULTIMATE.start_main_~a~0#1.base_15_fresh_1| () Int)
(declare-fun |v_ULTIMATE.start_linear_search_#in~a#1.base_13_fresh_1| () Int)
(declare-fun |v_ULTIMATE.start_linear_search_#in~q#1_13_fresh_1| () Int)
(declare-fun v_ArrVal_43_fresh_1 () (Array Int Int))
(declare-fun v_ArrVal_42_fresh_1 () Int)
(declare-fun |v_ULTIMATE.start_linear_search_#in~n#1_13_fresh_1| () Int)
(declare-fun |v_ULTIMATE.start_main_~a~0#1.offset_15_fresh_1| () Int)
(declare-fun |v_ULTIMATE.start_linear_search_#in~a#1.offset_13_fresh_1| () Int)
(declare-fun |ULTIMATE.start_linear_search_~j~0#1_4| () Int)
(declare-fun |ULTIMATE.start_linear_search_~j~0#1_5| () Int)
(declare-fun |ULTIMATE.start_linear_search_~j~0#1_6| () Int)
(declare-fun |ULTIMATE.start_linear_search_#t~short5#1_7| () Bool)
(declare-fun |ULTIMATE.start_linear_search_#res#1_10| () Int)
(declare-fun |ULTIMATE.start___VERIFIER_assert_~cond#1_11| () Int)
(declare-fun |v_ULTIMATE.start_main_#t~ret9#1_14_fresh_1| () Int)
(declare-fun |v_ULTIMATE.start___VERIFIER_assert_#in~cond#1_12_fresh_1| () Int)
(assert (not false))
(assert (<= 48 (select (select |#memory_int_-1| 1) 0)))
(assert (>= 48 (select (select |#memory_int_-1| 1) 0)))
(assert (<= (select |#valid_-1| 2) 1))
(assert (>= (select |#valid_-1| 2) 1))
(assert (<= (select |#valid_-1| 0) 0))
(assert (>= (select |#valid_-1| 0) 0))
(assert (< 0 |#StackHeapBarrier_-1|))
(assert (<= 1 (select |#valid_-1| 3)))
(assert (>= 1 (select |#valid_-1| 3)))
(assert (<= 100000 ~MAX~0_0))
(assert (>= 100000 ~MAX~0_0))
(assert (<= (select |#length_-1| 3) 12))
(assert (>= (select |#length_-1| 3) 12))
(assert (<= (select |#length_-1| 2) 16))
(assert (>= (select |#length_-1| 2) 16))
(assert (<= (select |#valid_-1| 1) 1))
(assert (>= (select |#valid_-1| 1) 1))
(assert (<= 2 (select |#length_-1| 1)))
(assert (>= 2 (select |#length_-1| 1)))
(assert (<= (select (select |#memory_int_-1| 1) 1) 0))
(assert (>= (select (select |#memory_int_-1| 1) 1) 0))
(assert (<= ~SIZE~0_0 0))
(assert (>= ~SIZE~0_0 0))
(assert (<= (+ (div (mod |v_ULTIMATE.start_main_#t~nondet7#1_15_fresh_1| 4294967296) 8) 1) ~SIZE~0_1))
(assert (>= (+ (div (mod |v_ULTIMATE.start_main_#t~nondet7#1_15_fresh_1| 4294967296) 8) 1) ~SIZE~0_1))
(assert (<= |ULTIMATE.start_main_#t~malloc8#1.base_2| |v_ULTIMATE.start_#Ultimate.meminit_#ptr#1.base_13_fresh_1|))
(assert (>= |ULTIMATE.start_main_#t~malloc8#1.base_2| |v_ULTIMATE.start_#Ultimate.meminit_#ptr#1.base_13_fresh_1|))
(assert (<= |v_ULTIMATE.start_#Ultimate.meminit_#sizeOfFields#1_11_fresh_1| 4))
(assert (>= |v_ULTIMATE.start_#Ultimate.meminit_#sizeOfFields#1_11_fresh_1| 4))
(assert (not (= |ULTIMATE.start_main_#t~malloc8#1.base_2| 0)))
(assert (= (store |#memory_int_-1| |v_ULTIMATE.start_#Ultimate.meminit_#ptr#1.base_13_fresh_1| v_ArrVal_41_fresh_1) |#memory_int_2|))
(assert (< 1 (mod ~SIZE~0_1 4294967296)))
(assert (<= |ULTIMATE.start_main_#t~malloc8#1.offset_2| 0))
(assert (>= |ULTIMATE.start_main_#t~malloc8#1.offset_2| 0))
(assert (<= v_ArrVal_39_fresh_1 1))
(assert (>= v_ArrVal_39_fresh_1 1))
(assert (<= (select |#valid_-1| |ULTIMATE.start_main_#t~malloc8#1.base_2|) 0))
(assert (>= (select |#valid_-1| |ULTIMATE.start_main_#t~malloc8#1.base_2|) 0))
(assert (<= ~SIZE~0_1 |v_ULTIMATE.start_#Ultimate.meminit_#amountOfFields#1_11_fresh_1|))
(assert (>= ~SIZE~0_1 |v_ULTIMATE.start_#Ultimate.meminit_#amountOfFields#1_11_fresh_1|))
(assert (<= v_ArrVal_40_fresh_1 (* 4 (mod ~SIZE~0_1 1073741824))))
(assert (>= v_ArrVal_40_fresh_1 (* 4 (mod ~SIZE~0_1 1073741824))))
(assert (= |#length_2| (store |#length_-1| |ULTIMATE.start_main_#t~malloc8#1.base_2| v_ArrVal_40_fresh_1)))
(assert (< (mod ~SIZE~0_1 4294967296) (mod ~MAX~0_0 4294967296)))
(assert (< |ULTIMATE.start_main_#t~malloc8#1.base_2| |#StackHeapBarrier_-1|))
(assert (<= |v_ULTIMATE.start_#Ultimate.meminit_#ptr#1.offset_11_fresh_1| |ULTIMATE.start_main_#t~malloc8#1.offset_2|))
(assert (>= |v_ULTIMATE.start_#Ultimate.meminit_#ptr#1.offset_11_fresh_1| |ULTIMATE.start_main_#t~malloc8#1.offset_2|))
(assert (= |#valid_2| (store |#valid_-1| |ULTIMATE.start_main_#t~malloc8#1.base_2| v_ArrVal_39_fresh_1)))
(assert (<= |v_ULTIMATE.start_#Ultimate.meminit_#product#1_11_fresh_1| (* ~SIZE~0_1 4)))
(assert (>= |v_ULTIMATE.start_#Ultimate.meminit_#product#1_11_fresh_1| (* ~SIZE~0_1 4)))
(assert (= (store (select |#memory_int_2| |v_ULTIMATE.start_main_~a~0#1.base_15_fresh_1|) (+ (* (let ((cse0 (mod (div (mod ~SIZE~0_1 4294967296) 2) 4294967296))) (ite (<= cse0 2147483647) cse0 (+ cse0 (- 4294967296)))) 4) |v_ULTIMATE.start_main_~a~0#1.offset_15_fresh_1|) v_ArrVal_42_fresh_1) v_ArrVal_43_fresh_1))
(assert (<= |ULTIMATE.start_linear_search_~q#1_3| |v_ULTIMATE.start_linear_search_#in~q#1_13_fresh_1|))
(assert (>= |ULTIMATE.start_linear_search_~q#1_3| |v_ULTIMATE.start_linear_search_#in~q#1_13_fresh_1|))
(assert (<= |ULTIMATE.start_main_#t~malloc8#1.offset_2| |v_ULTIMATE.start_main_~a~0#1.offset_15_fresh_1|))
(assert (>= |ULTIMATE.start_main_#t~malloc8#1.offset_2| |v_ULTIMATE.start_main_~a~0#1.offset_15_fresh_1|))
(assert (<= |ULTIMATE.start_linear_search_~n#1_3| |v_ULTIMATE.start_linear_search_#in~n#1_13_fresh_1|))
(assert (>= |ULTIMATE.start_linear_search_~n#1_3| |v_ULTIMATE.start_linear_search_#in~n#1_13_fresh_1|))
(assert (<= (let ((cse0 (mod ~SIZE~0_1 4294967296))) (ite (<= cse0 2147483647) cse0 (+ cse0 (- 4294967296)))) |v_ULTIMATE.start_linear_search_#in~n#1_13_fresh_1|))
(assert (>= (let ((cse0 (mod ~SIZE~0_1 4294967296))) (ite (<= cse0 2147483647) cse0 (+ cse0 (- 4294967296)))) |v_ULTIMATE.start_linear_search_#in~n#1_13_fresh_1|))
(assert (<= |ULTIMATE.start_main_#t~malloc8#1.base_2| |v_ULTIMATE.start_main_~a~0#1.base_15_fresh_1|))
(assert (>= |ULTIMATE.start_main_#t~malloc8#1.base_2| |v_ULTIMATE.start_main_~a~0#1.base_15_fresh_1|))
(assert (<= |v_ULTIMATE.start_main_~a~0#1.base_15_fresh_1| |v_ULTIMATE.start_linear_search_#in~a#1.base_13_fresh_1|))
(assert (>= |v_ULTIMATE.start_main_~a~0#1.base_15_fresh_1| |v_ULTIMATE.start_linear_search_#in~a#1.base_13_fresh_1|))
(assert (<= 3 |v_ULTIMATE.start_linear_search_#in~q#1_13_fresh_1|))
(assert (>= 3 |v_ULTIMATE.start_linear_search_#in~q#1_13_fresh_1|))
(assert (<= |ULTIMATE.start_linear_search_~a#1.offset_3| |v_ULTIMATE.start_linear_search_#in~a#1.offset_13_fresh_1|))
(assert (>= |ULTIMATE.start_linear_search_~a#1.offset_3| |v_ULTIMATE.start_linear_search_#in~a#1.offset_13_fresh_1|))
(assert (<= |ULTIMATE.start_linear_search_~a#1.base_3| |v_ULTIMATE.start_linear_search_#in~a#1.base_13_fresh_1|))
(assert (>= |ULTIMATE.start_linear_search_~a#1.base_3| |v_ULTIMATE.start_linear_search_#in~a#1.base_13_fresh_1|))
(assert (= (store |#memory_int_2| |v_ULTIMATE.start_main_~a~0#1.base_15_fresh_1| v_ArrVal_43_fresh_1) |#memory_int_3|))
(assert (<= 3 v_ArrVal_42_fresh_1))
(assert (>= 3 v_ArrVal_42_fresh_1))
(assert (<= |v_ULTIMATE.start_linear_search_#in~a#1.offset_13_fresh_1| |v_ULTIMATE.start_main_~a~0#1.offset_15_fresh_1|))
(assert (>= |v_ULTIMATE.start_linear_search_#in~a#1.offset_13_fresh_1| |v_ULTIMATE.start_main_~a~0#1.offset_15_fresh_1|))
(assert (<= |ULTIMATE.start_linear_search_~j~0#1_3| 0))
(assert (>= |ULTIMATE.start_linear_search_~j~0#1_3| 0))
(assert (let ((cse0 (mod |ULTIMATE.start_linear_search_~j~0#1_3| 4294967296))) (let ((cse1 (select |#memory_int_3| |ULTIMATE.start_linear_search_~a#1.base_3|)) (cse2 (* 4 cse0))) (or (and (<= cse0 2147483647) (not (= (select cse1 (+ cse2 |ULTIMATE.start_linear_search_~a#1.offset_3|)) |ULTIMATE.start_linear_search_~q#1_3|))) (and (not (= |ULTIMATE.start_linear_search_~q#1_3| (select cse1 (+ (- 17179869184) cse2 |ULTIMATE.start_linear_search_~a#1.offset_3|)))) (<= 2147483648 cse0))))))
(assert (let ((cse0 (mod |ULTIMATE.start_linear_search_~j~0#1_3| 4294967296))) (<= (+ cse0 |ULTIMATE.start_linear_search_~j~0#1_4|) (+ (* 4294967296 (div (+ (- 4294967295) cse0) 4294967296)) (mod |ULTIMATE.start_linear_search_~n#1_3| 4294967296) 4294967296 |ULTIMATE.start_linear_search_~j~0#1_3|))))
(assert (forall ((v_z_58 Int) (v_y_58 Int)) (let ((cse0 (* v_y_58 4294967296)) (cse1 (mod |ULTIMATE.start_linear_search_~j~0#1_3| 4294967296))) (or (< (+ cse0 v_z_58) 1) (not (= |ULTIMATE.start_linear_search_~q#1_3| (select (select |#memory_int_3| |ULTIMATE.start_linear_search_~a#1.base_3|) (+ (* v_z_58 4) (* 4 cse1) |ULTIMATE.start_linear_search_~a#1.offset_3|)))) (< v_z_58 0) (< |ULTIMATE.start_linear_search_~j~0#1_4| (+ cse0 v_z_58 1 |ULTIMATE.start_linear_search_~j~0#1_3|)) (< 2147483647 (+ v_z_58 cse1))))))
(assert (forall ((v_y_56 Int) (v_z_56 Int)) (let ((cse0 (* v_y_56 4294967296)) (cse1 (select |#memory_int_3| |ULTIMATE.start_linear_search_~a#1.base_3|)) (cse2 (* 4 (mod |ULTIMATE.start_linear_search_~j~0#1_3| 4294967296))) (cse3 (* v_z_56 4))) (or (< |ULTIMATE.start_linear_search_~j~0#1_4| (+ v_z_56 cse0 1 |ULTIMATE.start_linear_search_~j~0#1_3|)) (< v_z_56 0) (not (= |ULTIMATE.start_linear_search_~q#1_3| (select cse1 (+ cse2 |ULTIMATE.start_linear_search_~a#1.offset_3| cse3)))) (< 4294967295 v_z_56) (< (+ v_z_56 cse0) 1) (not (= |ULTIMATE.start_linear_search_~q#1_3| (select cse1 (+ (- 17179869184) cse2 |ULTIMATE.start_linear_search_~a#1.offset_3| cse3))))))))
(assert (<= (+ (mod |ULTIMATE.start_linear_search_~j~0#1_3| 4294967296) 1) (mod |ULTIMATE.start_linear_search_~n#1_3| 4294967296)))
(assert (<= (+ 1 |ULTIMATE.start_linear_search_~j~0#1_3|) |ULTIMATE.start_linear_search_~j~0#1_4|))
(assert (forall ((v_z_61 Int) (v_y_61 Int)) (let ((cse0 (* v_y_61 4294967296)) (cse1 (mod |ULTIMATE.start_linear_search_~j~0#1_3| 4294967296))) (or (< 4294967295 v_z_61) (< (+ v_z_61 cse0) 1) (< |ULTIMATE.start_linear_search_~j~0#1_4| (+ v_z_61 cse0 1 |ULTIMATE.start_linear_search_~j~0#1_3|)) (not (= |ULTIMATE.start_linear_search_~q#1_3| (select (select |#memory_int_3| |ULTIMATE.start_linear_search_~a#1.base_3|) (+ (* v_z_61 4) (- 17179869184) (* 4 cse1) |ULTIMATE.start_linear_search_~a#1.offset_3|)))) (< (+ v_z_61 cse1) 2147483648)))))
(assert (<= (+ (mod |ULTIMATE.start_linear_search_~j~0#1_4| 4294967296) |ULTIMATE.start_linear_search_~j~0#1_5|) (+ (mod |ULTIMATE.start_linear_search_~n#1_3| 4294967296) |ULTIMATE.start_linear_search_~j~0#1_4|)))
(assert (forall ((v_z_69 Int) (v_y_69 Int)) (let ((cse0 (mod |ULTIMATE.start_linear_search_~j~0#1_4| 4294967296)) (cse1 (* v_y_69 4294967296))) (or (< (+ v_z_69 cse0) 2147483648) (< (+ cse1 v_z_69) 1) (not (= |ULTIMATE.start_linear_search_~q#1_3| (select (select |#memory_int_3| |ULTIMATE.start_linear_search_~a#1.base_3|) (+ (- 17179869184) (* cse0 4) (* v_z_69 4) |ULTIMATE.start_linear_search_~a#1.offset_3|)))) (< 4294967295 v_z_69) (< |ULTIMATE.start_linear_search_~j~0#1_5| (+ cse1 v_z_69 1 |ULTIMATE.start_linear_search_~j~0#1_4|))))))
(assert (forall ((v_z_65 Int) (v_y_65 Int)) (let ((cse3 (* v_y_65 4294967296)) (cse0 (select |#memory_int_3| |ULTIMATE.start_linear_search_~a#1.base_3|)) (cse1 (* (mod |ULTIMATE.start_linear_search_~j~0#1_4| 4294967296) 4)) (cse2 (* v_z_65 4))) (or (not (= (select cse0 (+ cse1 |ULTIMATE.start_linear_search_~a#1.offset_3| cse2)) |ULTIMATE.start_linear_search_~q#1_3|)) (< v_z_65 0) (< (+ cse3 v_z_65) 1) (< |ULTIMATE.start_linear_search_~j~0#1_5| (+ cse3 v_z_65 1 |ULTIMATE.start_linear_search_~j~0#1_4|)) (not (= |ULTIMATE.start_linear_search_~q#1_3| (select cse0 (+ (- 17179869184) cse1 |ULTIMATE.start_linear_search_~a#1.offset_3| cse2)))) (< 4294967295 v_z_65)))))
(assert (let ((cse2 (mod |ULTIMATE.start_linear_search_~j~0#1_4| 4294967296))) (let ((cse0 (select |#memory_int_3| |ULTIMATE.start_linear_search_~a#1.base_3|)) (cse1 (* cse2 4))) (or (and (not (= (select cse0 (+ cse1 |ULTIMATE.start_linear_search_~a#1.offset_3|)) |ULTIMATE.start_linear_search_~q#1_3|)) (<= cse2 2147483647)) (and (not (= |ULTIMATE.start_linear_search_~q#1_3| (select cse0 (+ (- 17179869184) cse1 |ULTIMATE.start_linear_search_~a#1.offset_3|)))) (<= 2147483648 cse2))))))
(assert (forall ((v_y_67 Int) (v_z_67 Int)) (let ((cse1 (* v_y_67 4294967296)) (cse0 (mod |ULTIMATE.start_linear_search_~j~0#1_4| 4294967296))) (or (< 2147483647 (+ v_z_67 cse0)) (< (+ v_z_67 cse1) 1) (< |ULTIMATE.start_linear_search_~j~0#1_5| (+ v_z_67 cse1 1 |ULTIMATE.start_linear_search_~j~0#1_4|)) (not (= |ULTIMATE.start_linear_search_~q#1_3| (select (select |#memory_int_3| |ULTIMATE.start_linear_search_~a#1.base_3|) (+ (* v_z_67 4) (* cse0 4) |ULTIMATE.start_linear_search_~a#1.offset_3|)))) (< v_z_67 0)))))
(assert (<= (+ 1 |ULTIMATE.start_linear_search_~j~0#1_4|) |ULTIMATE.start_linear_search_~j~0#1_5|))
(assert (let ((cse0 (mod |ULTIMATE.start_linear_search_~j~0#1_5| 4294967296))) (<= (+ cse0 |ULTIMATE.start_linear_search_~j~0#1_6|) (+ (* (div (+ cse0 (- 4294967295)) 4294967296) 4294967296) (mod |ULTIMATE.start_linear_search_~n#1_3| 4294967296) 4294967296 |ULTIMATE.start_linear_search_~j~0#1_5|))))
(assert (forall ((v_z_71 Int) (v_y_71 Int)) (let ((cse1 (select |#memory_int_3| |ULTIMATE.start_linear_search_~a#1.base_3|)) (cse2 (* (mod |ULTIMATE.start_linear_search_~j~0#1_5| 4294967296) 4)) (cse3 (* v_z_71 4)) (cse0 (* v_y_71 4294967296))) (or (< (+ v_z_71 cse0) 1) (< 4294967295 v_z_71) (not (= (select cse1 (+ cse2 (- 17179869184) cse3 |ULTIMATE.start_linear_search_~a#1.offset_3|)) |ULTIMATE.start_linear_search_~q#1_3|)) (not (= |ULTIMATE.start_linear_search_~q#1_3| (select cse1 (+ cse2 cse3 |ULTIMATE.start_linear_search_~a#1.offset_3|)))) (< |ULTIMATE.start_linear_search_~j~0#1_6| (+ v_z_71 cse0 1 |ULTIMATE.start_linear_search_~j~0#1_5|)) (< v_z_71 0)))))
(assert (forall ((v_z_71 Int) (v_y_71 Int)) (let ((cse0 (* v_y_71 4294967296)) (cse1 (mod |ULTIMATE.start_linear_search_~j~0#1_5| 4294967296))) (or (< (+ v_z_71 cse0) 1) (< 4294967295 v_z_71) (not (= (select (select |#memory_int_3| |ULTIMATE.start_linear_search_~a#1.base_3|) (+ (* cse1 4) (- 17179869184) (* v_z_71 4) |ULTIMATE.start_linear_search_~a#1.offset_3|)) |ULTIMATE.start_linear_search_~q#1_3|)) (< |ULTIMATE.start_linear_search_~j~0#1_6| (+ v_z_71 cse0 1 |ULTIMATE.start_linear_search_~j~0#1_5|)) (< (+ v_z_71 cse1) 2147483648)))))
(assert (<= (+ (mod |ULTIMATE.start_linear_search_~j~0#1_5| 4294967296) 1) (mod |ULTIMATE.start_linear_search_~n#1_3| 4294967296)))
(assert (forall ((v_z_73 Int) (v_y_73 Int)) (let ((cse0 (mod |ULTIMATE.start_linear_search_~j~0#1_5| 4294967296)) (cse1 (* v_y_73 4294967296))) (or (< 2147483647 (+ v_z_73 cse0)) (< v_z_73 0) (not (= (select (select |#memory_int_3| |ULTIMATE.start_linear_search_~a#1.base_3|) (+ (* cse0 4) |ULTIMATE.start_linear_search_~a#1.offset_3| (* v_z_73 4))) |ULTIMATE.start_linear_search_~q#1_3|)) (< (+ cse1 v_z_73) 1) (< |ULTIMATE.start_linear_search_~j~0#1_6| (+ cse1 v_z_73 1 |ULTIMATE.start_linear_search_~j~0#1_5|))))))
(assert (<= (+ 1 |ULTIMATE.start_linear_search_~j~0#1_5|) |ULTIMATE.start_linear_search_~j~0#1_6|))
(assert (let ((cse0 (mod |ULTIMATE.start_linear_search_~j~0#1_5| 4294967296))) (let ((cse1 (select |#memory_int_3| |ULTIMATE.start_linear_search_~a#1.base_3|)) (cse2 (* cse0 4))) (or (and (<= cse0 2147483647) (not (= |ULTIMATE.start_linear_search_~q#1_3| (select cse1 (+ cse2 |ULTIMATE.start_linear_search_~a#1.offset_3|))))) (and (not (= |ULTIMATE.start_linear_search_~q#1_3| (select cse1 (+ cse2 (- 17179869184) |ULTIMATE.start_linear_search_~a#1.offset_3|)))) (<= 2147483648 cse0))))))
(assert (let ((cse1 (mod |ULTIMATE.start_linear_search_~j~0#1_6| 4294967296)) (cse0 (mod |ULTIMATE.start_linear_search_~n#1_3| 4294967296))) (or (and (<= cse0 cse1) (not |ULTIMATE.start_linear_search_#t~short5#1_7|)) (and (< cse1 cse0) |ULTIMATE.start_linear_search_#t~short5#1_7|))))
(assert (not |ULTIMATE.start_linear_search_#t~short5#1_7|))
(assert (not |ULTIMATE.start_linear_search_#t~short5#1_7|))
(assert (<= |ULTIMATE.start_linear_search_#res#1_10| 0))
(assert (>= |ULTIMATE.start_linear_search_#res#1_10| 0))
(assert (<= (mod ~SIZE~0_1 4294967296) (mod |ULTIMATE.start_linear_search_~j~0#1_6| 4294967296)))
(assert (<= |v_ULTIMATE.start_main_#t~ret9#1_14_fresh_1| 2147483647))
(assert (<= |v_ULTIMATE.start_main_#t~ret9#1_14_fresh_1| |v_ULTIMATE.start___VERIFIER_assert_#in~cond#1_12_fresh_1|))
(assert (>= |v_ULTIMATE.start_main_#t~ret9#1_14_fresh_1| |v_ULTIMATE.start___VERIFIER_assert_#in~cond#1_12_fresh_1|))
(assert (<= |ULTIMATE.start___VERIFIER_assert_~cond#1_11| |v_ULTIMATE.start___VERIFIER_assert_#in~cond#1_12_fresh_1|))
(assert (>= |ULTIMATE.start___VERIFIER_assert_~cond#1_11| |v_ULTIMATE.start___VERIFIER_assert_#in~cond#1_12_fresh_1|))
(assert (<= |v_ULTIMATE.start_main_#t~ret9#1_14_fresh_1| |ULTIMATE.start_linear_search_#res#1_10|))
(assert (>= |v_ULTIMATE.start_main_#t~ret9#1_14_fresh_1| |ULTIMATE.start_linear_search_#res#1_10|))
(assert (<= 0 (+ |v_ULTIMATE.start_main_#t~ret9#1_14_fresh_1| 2147483648)))
(assert (<= |ULTIMATE.start___VERIFIER_assert_~cond#1_11| 0))
(assert (>= |ULTIMATE.start___VERIFIER_assert_~cond#1_11| 0))
(check-sat)
(exit)
